(set-info :Origin "This instance was generated by: BanditFuzz-- an RL fuzzer for SMT solvers" )
(set-info :Author "Joe Scott, Fed Mora, Vijay Ganesh" )
(set-info :Contact "Joe Scott, joseph.scott@uwaterloo.ca")
(set-logic QF_BV)
(declare-const bool_0 Bool)
(declare-const bool_1 Bool)
(declare-const bool_2 Bool)
(declare-const bool_3 Bool)
(declare-const bool_4 Bool)
(declare-const bv_0 (_ BitVec 32))
(declare-const bv_1 (_ BitVec 32))
(declare-const bv_2 (_ BitVec 32))
(declare-const bv_3 (_ BitVec 32))
(declare-const bv_4 (_ BitVec 32))
(assert (bvsgt (bvnor (bvudiv bv_3 #x1602c51e ) (bvxor #x806def2a  bv_3)) (bvashr (bvxnor #xb3aaad7a  bv_1) (bvxor #xe88a73a0  bv_1))))
(assert (bvugt (bvxnor (bvmul bv_4 #x3f808b2d ) (bvsrem #x21262c6a  bv_1)) (bvadd (bvshl bv_4 #x4a91430a ) (bvlshr #xccb9362e  bv_2))))
(assert (xor (bvuge (bvashr #xe9eaa427  #x8a885b34 ) (bvurem #xa96b520f  bv_3)) (bvuge (bvxnor #xf7332000  #xe524dbd5 ) (bvmul bv_0 #x4b68c1e2 ))))
(assert (=> (bvule (bvnand bv_2 #x2cb2941f ) (bvnor #xc60e68f8  #xf33ea6a6 )) (bvult (bvudiv #x0b0170f1  bv_4) (bvshl #x2239f230  #x8d160214 ))))
(assert (not (xor (bvule #x4659f78a  bv_4) (bvsge #xd01a6910  #x46494932 ))))
(check-sat)
(exit)
